c nIsolatedPIs 0
c maxPI 32
p cnf 321 868
c gate 33 4 20 0
4 -33 0
20 -33 0
-4 -20 33 0
c gate 34 -4 -20 0
-4 -34 0
-20 -34 0
4 20 34 0
c gate 35 -33 -34 0
-33 -35 0
-34 -35 0
33 34 35 0
c gate 36 3 19 0
3 -36 0
19 -36 0
-3 -19 36 0
c gate 37 -3 19 0
-3 -37 0
19 -37 0
3 -19 37 0
c gate 38 3 -19 0
3 -38 0
-19 -38 0
-3 19 38 0
c gate 39 -37 -38 0
-37 -39 0
-38 -39 0
37 38 39 0
c gate 40 -2 18 0
-2 -40 0
18 -40 0
2 -18 40 0
c gate 41 2 -18 0
2 -41 0
-18 -41 0
-2 18 41 0
c gate 42 -40 -41 0
-40 -42 0
-41 -42 0
40 41 42 0
c gate 43 1 17 0
1 -43 0
17 -43 0
-1 -17 43 0
c gate 44 -42 43 0
-42 -44 0
43 -44 0
42 -43 44 0
c gate 45 2 18 0
2 -45 0
18 -45 0
-2 -18 45 0
c gate 46 -44 -45 0
-44 -46 0
-45 -46 0
44 45 46 0
c gate 47 -39 -46 0
-39 -47 0
-46 -47 0
39 46 47 0
c gate 48 -36 -47 0
-36 -48 0
-47 -48 0
36 47 48 0
c gate 49 35 48 0
35 -49 0
48 -49 0
-35 -48 49 0
c gate 50 -35 -48 0
-35 -50 0
-48 -50 0
35 48 50 0
c gate 51 -49 -50 0
-49 -51 0
-50 -51 0
49 50 51 0
c gate 52 18 -46 0
18 -52 0
-46 -52 0
-18 46 52 0
c gate 53 -36 -52 0
-36 -53 0
-52 -53 0
36 52 53 0
c gate 54 35 -53 0
35 -54 0
-53 -54 0
-35 53 54 0
c gate 55 -35 53 0
-35 -55 0
53 -55 0
35 -53 55 0
c gate 56 -54 -55 0
-54 -56 0
-55 -56 0
54 55 56 0
c gate 57 51 56 0
51 -57 0
56 -57 0
-51 -56 57 0
c gate 58 -51 -56 0
-51 -58 0
-56 -58 0
51 56 58 0
c gate 59 -57 -58 0
-57 -59 0
-58 -59 0
57 58 59 0
c gate 60 12 28 0
12 -60 0
28 -60 0
-12 -28 60 0
c gate 61 -12 28 0
-12 -61 0
28 -61 0
12 -28 61 0
c gate 62 12 -28 0
12 -62 0
-28 -62 0
-12 28 62 0
c gate 63 -61 -62 0
-61 -63 0
-62 -63 0
61 62 63 0
c gate 64 11 27 0
11 -64 0
27 -64 0
-11 -27 64 0
c gate 65 10 26 0
10 -65 0
26 -65 0
-10 -26 65 0
c gate 66 -9 -25 0
-9 -66 0
-25 -66 0
9 25 66 0
c gate 67 -10 -26 0
-10 -67 0
-26 -67 0
10 26 67 0
c gate 68 -66 -67 0
-66 -68 0
-67 -68 0
66 67 68 0
c gate 69 9 25 0
9 -69 0
25 -69 0
-9 -25 69 0
c gate 70 -7 -23 0
-7 -70 0
-23 -70 0
7 23 70 0
c gate 71 -6 -22 0
-6 -71 0
-22 -71 0
6 22 71 0
c gate 72 5 21 0
5 -72 0
21 -72 0
-5 -21 72 0
c gate 73 -33 -54 0
-33 -73 0
-54 -73 0
33 54 73 0
c gate 74 -72 73 0
-72 -74 0
73 -74 0
72 -73 74 0
c gate 75 -71 -74 0
-71 -75 0
-74 -75 0
71 74 75 0
c gate 76 -70 75 0
-70 -76 0
75 -76 0
70 -75 76 0
c gate 77 8 24 0
8 -77 0
24 -77 0
-8 -24 77 0
c gate 78 -76 -77 0
-76 -78 0
-77 -78 0
76 77 78 0
c gate 79 -69 78 0
-69 -79 0
78 -79 0
69 -78 79 0
c gate 80 68 -79 0
68 -80 0
-79 -80 0
-68 79 80 0
c gate 81 -65 -80 0
-65 -81 0
-80 -81 0
65 80 81 0
c gate 82 -11 -27 0
-11 -82 0
-27 -82 0
11 27 82 0
c gate 83 -64 -82 0
-64 -83 0
-82 -83 0
64 82 83 0
c gate 84 -81 83 0
-81 -84 0
83 -84 0
81 -83 84 0
c gate 85 -64 -84 0
-64 -85 0
-84 -85 0
64 84 85 0
c gate 86 -63 -85 0
-63 -86 0
-85 -86 0
63 85 86 0
c gate 87 -60 -86 0
-60 -87 0
-86 -87 0
60 86 87 0
c gate 88 15 31 0
15 -88 0
31 -88 0
-15 -31 88 0
c gate 89 -15 -31 0
-15 -89 0
-31 -89 0
15 31 89 0
c gate 90 14 30 0
14 -90 0
30 -90 0
-14 -30 90 0
c gate 91 -13 -29 0
-13 -91 0
-29 -91 0
13 29 91 0
c gate 92 -14 -30 0
-14 -92 0
-30 -92 0
14 30 92 0
c gate 93 -91 -92 0
-91 -93 0
-92 -93 0
91 92 93 0
c gate 94 -12 -28 0
-12 -94 0
-28 -94 0
12 28 94 0
c gate 95 -8 -24 0
-8 -95 0
-24 -95 0
8 24 95 0
c gate 96 7 23 0
7 -96 0
23 -96 0
-7 -23 96 0
c gate 97 6 22 0
6 -97 0
22 -97 0
-6 -22 97 0
c gate 98 -5 21 0
-5 -98 0
21 -98 0
5 -21 98 0
c gate 99 5 -21 0
5 -99 0
-21 -99 0
-5 21 99 0
c gate 100 -98 -99 0
-98 -100 0
-99 -100 0
98 99 100 0
c gate 101 -34 -49 0
-34 -101 0
-49 -101 0
34 49 101 0
c gate 102 -100 101 0
-100 -102 0
101 -102 0
100 -101 102 0
c gate 103 -72 -102 0
-72 -103 0
-102 -103 0
72 102 103 0
c gate 104 6 -22 0
6 -104 0
-22 -104 0
-6 22 104 0
c gate 105 -6 22 0
-6 -105 0
22 -105 0
6 -22 105 0
c gate 106 -104 -105 0
-104 -106 0
-105 -106 0
104 105 106 0
c gate 107 -103 -106 0
-103 -107 0
-106 -107 0
103 106 107 0
c gate 108 -97 -107 0
-97 -108 0
-107 -108 0
97 107 108 0
c gate 109 7 -23 0
7 -109 0
-23 -109 0
-7 23 109 0
c gate 110 -7 23 0
-7 -110 0
23 -110 0
7 -23 110 0
c gate 111 -109 -110 0
-109 -111 0
-110 -111 0
109 110 111 0
c gate 112 -108 -111 0
-108 -112 0
-111 -112 0
108 111 112 0
c gate 113 -96 -112 0
-96 -113 0
-112 -113 0
96 112 113 0
c gate 114 -95 -113 0
-95 -114 0
-113 -114 0
95 113 114 0
c gate 115 -77 -114 0
-77 -115 0
-114 -115 0
77 114 115 0
c gate 116 -69 115 0
-69 -116 0
115 -116 0
69 -115 116 0
c gate 117 68 -116 0
68 -117 0
-116 -117 0
-68 116 117 0
c gate 118 -65 -117 0
-65 -118 0
-117 -118 0
65 117 118 0
c gate 119 -82 -118 0
-82 -119 0
-118 -119 0
82 118 119 0
c gate 120 -64 -119 0
-64 -120 0
-119 -120 0
64 119 120 0
c gate 121 -94 -120 0
-94 -121 0
-120 -121 0
94 120 121 0
c gate 122 13 29 0
13 -122 0
29 -122 0
-13 -29 122 0
c gate 123 -60 -122 0
-60 -123 0
-122 -123 0
60 122 123 0
c gate 124 -121 123 0
-121 -124 0
123 -124 0
121 -123 124 0
c gate 125 93 -124 0
93 -125 0
-124 -125 0
-93 124 125 0
c gate 126 -90 -125 0
-90 -126 0
-125 -126 0
90 125 126 0
c gate 127 -89 -126 0
-89 -127 0
-126 -127 0
89 126 127 0
c gate 128 -88 -127 0
-88 -128 0
-127 -128 0
88 127 128 0
c gate 129 16 -32 0
16 -129 0
-32 -129 0
-16 32 129 0
c gate 130 -16 32 0
-16 -130 0
32 -130 0
16 -32 130 0
c gate 131 -129 -130 0
-129 -131 0
-130 -131 0
129 130 131 0
c gate 132 128 -131 0
128 -132 0
-131 -132 0
-128 131 132 0
c gate 133 -128 131 0
-128 -133 0
131 -133 0
128 -131 133 0
c gate 134 -132 -133 0
-132 -134 0
-133 -134 0
132 133 134 0
c gate 135 87 -122 0
87 -135 0
-122 -135 0
-87 122 135 0
c gate 136 93 -135 0
93 -136 0
-135 -136 0
-93 135 136 0
c gate 137 -90 -136 0
-90 -137 0
-136 -137 0
90 136 137 0
c gate 138 -89 -137 0
-89 -138 0
-137 -138 0
89 137 138 0
c gate 139 -88 -138 0
-88 -139 0
-138 -139 0
88 138 139 0
c gate 140 131 -139 0
131 -140 0
-139 -140 0
-131 139 140 0
c gate 141 -131 139 0
-131 -141 0
139 -141 0
131 -139 141 0
c gate 142 -140 -141 0
-140 -142 0
-141 -142 0
140 141 142 0
c gate 143 134 -142 0
134 -143 0
-142 -143 0
-134 142 143 0
c gate 144 87 143 0
87 -144 0
143 -144 0
-87 -143 144 0
c gate 145 76 115 0
76 -145 0
115 -145 0
-76 -115 145 0
c gate 146 78 114 0
78 -146 0
114 -146 0
-78 -114 146 0
c gate 147 -145 -146 0
-145 -147 0
-146 -147 0
145 146 147 0
c gate 148 -85 -120 0
-85 -148 0
-120 -148 0
85 120 148 0
c gate 149 85 -119 0
85 -149 0
-119 -149 0
-85 119 149 0
c gate 150 -148 -149 0
-148 -150 0
-149 -150 0
148 149 150 0
c gate 151 -65 -67 0
-65 -151 0
-67 -151 0
65 67 151 0
c gate 152 -66 -69 0
-66 -152 0
-69 -152 0
66 69 152 0
c gate 153 83 152 0
83 -153 0
152 -153 0
-83 -152 153 0
c gate 154 151 153 0
151 -154 0
153 -154 0
-151 -153 154 0
c gate 155 146 -154 0
146 -155 0
-154 -155 0
-146 154 155 0
c gate 156 145 154 0
145 -156 0
154 -156 0
-145 -154 156 0
c gate 157 -155 -156 0
-155 -157 0
-156 -157 0
155 156 157 0
c gate 158 -150 157 0
-150 -158 0
157 -158 0
150 -157 158 0
c gate 159 63 -120 0
63 -159 0
-120 -159 0
-63 120 159 0
c gate 160 -86 -149 0
-86 -160 0
-149 -160 0
86 149 160 0
c gate 161 -159 160 0
-159 -161 0
160 -161 0
159 -160 161 0
c gate 162 -158 -161 0
-158 -162 0
-161 -162 0
158 161 162 0
c gate 163 -147 -162 0
-147 -163 0
-162 -163 0
147 162 163 0
c gate 164 -63 150 0
-63 -164 0
150 -164 0
63 -150 164 0
c gate 165 -163 -164 0
-163 -165 0
-164 -165 0
163 164 165 0
c gate 166 -134 142 0
-134 -166 0
142 -166 0
134 -142 166 0
c gate 167 -84 -119 0
-84 -167 0
-119 -167 0
84 119 167 0
c gate 168 -14 30 0
-14 -168 0
30 -168 0
14 -30 168 0
c gate 169 14 -30 0
14 -169 0
-30 -169 0
-14 30 169 0
c gate 170 -168 -169 0
-168 -170 0
-169 -170 0
168 169 170 0
c gate 171 -88 -89 0
-88 -171 0
-89 -171 0
88 89 171 0
c gate 172 -13 29 0
-13 -172 0
29 -172 0
13 -29 172 0
c gate 173 13 -29 0
13 -173 0
-29 -173 0
-13 29 173 0
c gate 174 -172 -173 0
-172 -174 0
-173 -174 0
172 173 174 0
c gate 175 171 -174 0
171 -175 0
-174 -175 0
-171 174 175 0
c gate 176 -170 175 0
-170 -176 0
175 -176 0
170 -175 176 0
c gate 177 119 176 0
119 -177 0
176 -177 0
-119 -176 177 0
c gate 178 84 -176 0
84 -178 0
-176 -178 0
-84 176 178 0
c gate 179 -63 -64 0
-63 -179 0
-64 -179 0
63 64 179 0
c gate 180 -178 179 0
-178 -180 0
179 -180 0
178 -179 180 0
c gate 181 -177 180 0
-177 -181 0
180 -181 0
177 -180 181 0
c gate 182 -167 181 0
-167 -182 0
181 -182 0
167 -181 182 0
c gate 183 -143 182 0
-143 -183 0
182 -183 0
143 -182 183 0
c gate 184 -166 -183 0
-166 -184 0
-183 -184 0
166 183 184 0
c gate 185 -165 184 0
-165 -185 0
184 -185 0
165 -184 185 0
c gate 186 -77 -95 0
-77 -186 0
-95 -186 0
77 95 186 0
c gate 187 76 186 0
76 -187 0
186 -187 0
-76 -186 187 0
c gate 188 113 -187 0
113 -188 0
-187 -188 0
-113 187 188 0
c gate 189 -113 186 0
-113 -189 0
186 -189 0
113 -186 189 0
c gate 190 -188 -189 0
-188 -190 0
-189 -190 0
188 189 190 0
c gate 191 108 111 0
108 -191 0
111 -191 0
-108 -111 191 0
c gate 192 -112 -191 0
-112 -192 0
-191 -192 0
112 191 192 0
c gate 193 75 111 0
75 -193 0
111 -193 0
-75 -111 193 0
c gate 194 -75 -111 0
-75 -194 0
-111 -194 0
75 111 194 0
c gate 195 -193 -194 0
-193 -195 0
-194 -195 0
193 194 195 0
c gate 196 -192 -195 0
-192 -196 0
-195 -196 0
192 195 196 0
c gate 197 192 195 0
192 -197 0
195 -197 0
-192 -195 197 0
c gate 198 103 106 0
103 -198 0
106 -198 0
-103 -106 198 0
c gate 199 -107 -198 0
-107 -199 0
-198 -199 0
107 198 199 0
c gate 200 74 106 0
74 -200 0
106 -200 0
-74 -106 200 0
c gate 201 -74 -106 0
-74 -201 0
-106 -201 0
74 106 201 0
c gate 202 -200 -201 0
-200 -202 0
-201 -202 0
200 201 202 0
c gate 203 -199 202 0
-199 -203 0
202 -203 0
199 -202 203 0
c gate 204 100 -101 0
100 -204 0
-101 -204 0
-100 101 204 0
c gate 205 -102 -204 0
-102 -205 0
-204 -205 0
102 204 205 0
c gate 206 73 -100 0
73 -206 0
-100 -206 0
-73 100 206 0
c gate 207 -73 100 0
-73 -207 0
100 -207 0
73 -100 207 0
c gate 208 -206 -207 0
-206 -208 0
-207 -208 0
206 207 208 0
c gate 209 205 208 0
205 -209 0
208 -209 0
-205 -208 209 0
c gate 210 199 -202 0
199 -210 0
-202 -210 0
-199 202 210 0
c gate 211 -203 -210 0
-203 -211 0
-210 -211 0
203 210 211 0
c gate 212 -209 211 0
-209 -212 0
211 -212 0
209 -211 212 0
c gate 213 -203 -212 0
-203 -213 0
-212 -213 0
203 212 213 0
c gate 214 -197 -213 0
-197 -214 0
-213 -214 0
197 213 214 0
c gate 215 18 -39 0
18 -215 0
-39 -215 0
-18 39 215 0
c gate 216 -46 -215 0
-46 -216 0
-215 -216 0
46 215 216 0
c gate 217 -205 -208 0
-205 -217 0
-208 -217 0
205 208 217 0
c gate 218 -2 47 0
-2 -218 0
47 -218 0
2 -47 218 0
c gate 219 -57 -218 0
-57 -219 0
-218 -219 0
57 218 219 0
c gate 220 -217 219 0
-217 -220 0
219 -220 0
217 -219 220 0
c gate 221 212 220 0
212 -221 0
220 -221 0
-212 -220 221 0
c gate 222 216 221 0
216 -222 0
221 -222 0
-216 -221 222 0
c gate 223 214 -222 0
214 -223 0
-222 -223 0
-214 222 223 0
c gate 224 -196 -223 0
-196 -224 0
-223 -224 0
196 223 224 0
c gate 225 -190 -224 0
-190 -225 0
-224 -225 0
190 224 225 0
c gate 226 147 225 0
147 -226 0
225 -226 0
-147 -225 226 0
c gate 227 -185 -226 0
-185 -227 0
-226 -227 0
185 226 227 0
c gate 228 132 138 0
132 -228 0
138 -228 0
-132 -138 228 0
c gate 229 -227 -228 0
-227 -229 0
-228 -229 0
227 228 229 0
c gate 230 -144 -229 0
-144 -230 0
-229 -230 0
144 229 230 0
c gate 231 4 -20 0
4 -231 0
-20 -231 0
-4 20 231 0
c gate 232 -1 17 0
-1 -232 0
17 -232 0
1 -17 232 0
c gate 233 -40 -232 0
-40 -233 0
-232 -233 0
40 232 233 0
c gate 234 -38 -41 0
-38 -234 0
-41 -234 0
38 41 234 0
c gate 235 -233 234 0
-233 -235 0
234 -235 0
233 -234 235 0
c gate 236 -37 -235 0
-37 -236 0
-235 -236 0
37 235 236 0
c gate 237 231 -236 0
231 -237 0
-236 -237 0
-231 236 237 0
c gate 238 -230 -237 0
-230 -238 0
-237 -238 0
230 237 238 0
c gate 239 100 106 0
100 -239 0
106 -239 0
-100 -106 239 0
c gate 240 111 239 0
111 -240 0
239 -240 0
-111 -239 240 0
c gate 241 237 240 0
237 -241 0
240 -241 0
-237 -240 241 0
c gate 242 -238 -241 0
-238 -242 0
-241 -242 0
238 241 242 0
c gate 243 -15 31 0
-15 -243 0
31 -243 0
15 -31 243 0
c gate 244 -11 27 0
-11 -244 0
27 -244 0
11 -27 244 0
c gate 245 11 -27 0
11 -245 0
-27 -245 0
-11 27 245 0
c gate 246 -10 26 0
-10 -246 0
26 -246 0
10 -26 246 0
c gate 247 10 -26 0
10 -247 0
-26 -247 0
-10 26 247 0
c gate 248 9 -25 0
9 -248 0
-25 -248 0
-9 25 248 0
c gate 249 -247 -248 0
-247 -249 0
-248 -249 0
247 248 249 0
c gate 250 8 -24 0
8 -250 0
-24 -250 0
-8 24 250 0
c gate 251 -35 236 0
-35 -251 0
236 -251 0
35 -236 251 0
c gate 252 -99 -231 0
-99 -252 0
-231 -252 0
99 231 252 0
c gate 253 -251 252 0
-251 -253 0
252 -253 0
251 -252 253 0
c gate 254 -98 -253 0
-98 -254 0
-253 -254 0
98 253 254 0
c gate 255 -104 -254 0
-104 -255 0
-254 -255 0
104 254 255 0
c gate 256 -105 -110 0
-105 -256 0
-110 -256 0
105 110 256 0
c gate 257 -255 256 0
-255 -257 0
256 -257 0
255 -256 257 0
c gate 258 -109 -257 0
-109 -258 0
-257 -258 0
109 257 258 0
c gate 259 -250 258 0
-250 -259 0
258 -259 0
250 -258 259 0
c gate 260 -9 25 0
-9 -260 0
25 -260 0
9 -25 260 0
c gate 261 -8 24 0
-8 -261 0
24 -261 0
8 -24 261 0
c gate 262 -260 -261 0
-260 -262 0
-261 -262 0
260 261 262 0
c gate 263 -259 262 0
-259 -263 0
262 -263 0
259 -262 263 0
c gate 264 249 -263 0
249 -264 0
-263 -264 0
-249 263 264 0
c gate 265 -246 -264 0
-246 -265 0
-264 -265 0
246 264 265 0
c gate 266 -245 -265 0
-245 -266 0
-265 -266 0
245 265 266 0
c gate 267 -244 -266 0
-244 -267 0
-266 -267 0
244 266 267 0
c gate 268 -245 -250 0
-245 -268 0
-250 -268 0
245 250 268 0
c gate 269 249 268 0
249 -269 0
268 -269 0
-249 -268 269 0
c gate 270 241 269 0
241 -270 0
269 -270 0
-241 -269 270 0
c gate 271 -61 -270 0
-61 -271 0
-270 -271 0
61 270 271 0
c gate 272 267 271 0
267 -272 0
271 -272 0
-267 -271 272 0
c gate 273 -62 -173 0
-62 -273 0
-173 -273 0
62 173 273 0
c gate 274 -272 273 0
-272 -274 0
273 -274 0
272 -273 274 0
c gate 275 -172 -274 0
-172 -275 0
-274 -275 0
172 274 275 0
c gate 276 -169 -275 0
-169 -276 0
-275 -276 0
169 275 276 0
c gate 277 -168 -276 0
-168 -277 0
-276 -277 0
168 276 277 0
c gate 278 15 -31 0
15 -278 0
-31 -278 0
-15 31 278 0
c gate 279 -277 -278 0
-277 -279 0
-278 -279 0
277 278 279 0
c gate 280 -243 -279 0
-243 -280 0
-279 -280 0
243 279 280 0
c gate 281 131 -280 0
131 -281 0
-280 -281 0
-131 280 281 0
c gate 282 -62 -267 0
-62 -282 0
-267 -282 0
62 267 282 0
c gate 283 -61 -172 0
-61 -283 0
-172 -283 0
61 172 283 0
c gate 284 -282 283 0
-282 -284 0
283 -284 0
282 -283 284 0
c gate 285 -173 -284 0
-173 -285 0
-284 -285 0
173 284 285 0
c gate 286 -168 -285 0
-168 -286 0
-285 -286 0
168 285 286 0
c gate 287 -169 -286 0
-169 -287 0
-286 -287 0
169 286 287 0
c gate 288 -243 -287 0
-243 -288 0
-287 -288 0
243 287 288 0
c gate 289 -278 -288 0
-278 -289 0
-288 -289 0
278 288 289 0
c gate 290 131 289 0
131 -290 0
289 -290 0
-131 -289 290 0
c gate 291 279 288 0
279 -291 0
288 -291 0
-279 -288 291 0
c gate 292 -290 -291 0
-290 -292 0
-291 -292 0
290 291 292 0
c gate 293 -281 -292 0
-281 -293 0
-292 -293 0
281 292 293 0
c gate 294 171 -277 0
171 -294 0
-277 -294 0
-171 277 294 0
c gate 295 -287 294 0
-287 -295 0
294 -295 0
287 -294 295 0
c gate 296 -171 277 0
-171 -296 0
277 -296 0
171 -277 296 0
c gate 297 287 296 0
287 -297 0
296 -297 0
-287 -296 297 0
c gate 298 -83 -152 0
-83 -298 0
-152 -298 0
83 152 298 0
c gate 299 -151 -186 0
-151 -299 0
-186 -299 0
151 186 299 0
c gate 300 298 299 0
298 -300 0
299 -300 0
-298 -299 300 0
c gate 301 -258 -300 0
-258 -301 0
-300 -301 0
258 300 301 0
c gate 302 63 174 0
63 -302 0
174 -302 0
-63 -174 302 0
c gate 303 269 -302 0
269 -303 0
-302 -303 0
-269 302 303 0
c gate 304 267 303 0
267 -304 0
303 -304 0
-267 -303 304 0
c gate 305 -301 -304 0
-301 -305 0
-304 -305 0
301 304 305 0
c gate 306 241 -305 0
241 -306 0
-305 -306 0
-241 305 306 0
c gate 307 -170 -275 0
-170 -307 0
-275 -307 0
170 275 307 0
c gate 308 -285 307 0
-285 -308 0
307 -308 0
285 -307 308 0
c gate 309 -306 -308 0
-306 -309 0
-308 -309 0
306 308 309 0
c gate 310 -297 309 0
-297 -310 0
309 -310 0
297 -309 310 0
c gate 311 -295 310 0
-295 -311 0
310 -311 0
295 -310 311 0
c gate 312 -293 311 0
-293 -312 0
311 -312 0
293 -311 312 0
c gate 313 -242 312 0
-242 -313 0
312 -313 0
242 -312 313 0
c gate 314 44 -313 0
44 -314 0
-313 -314 0
-44 313 314 0
c gate 315 -39 -314 0
-39 -315 0
-314 -315 0
39 314 315 0
c gate 316 -46 313 0
-46 -316 0
313 -316 0
46 -313 316 0
c gate 317 39 -316 0
39 -317 0
-316 -317 0
-39 316 317 0
c gate 318 -315 -317 0
-315 -318 0
-317 -318 0
315 317 318 0
c gate 319 59 318 0
59 -319 0
318 -319 0
-59 -318 319 0
c gate 320 -59 -318 0
-59 -320 0
-318 -320 0
59 318 320 0
c gate 321 -319 -320 0
-319 -321 0
-320 -321 0
319 320 321 0
c PO
-321 0
